(set-option :produce-models true)
(declare-fun cancion_0 () Int)
(declare-fun cancion_1 () Int)
(declare-fun cancion_2 () Int)
(declare-fun cancion_3 () Int)
(assert (<= 0 cancion_0 ) )
(assert (<= cancion_0 2 ) )
(assert (<= 0 cancion_1 ) )
(assert (<= cancion_1 2 ) )
(assert (<= 0 cancion_2 ) )
(assert (<= cancion_2 2 ) )
(assert (<= 0 cancion_3 ) )
(assert (<= cancion_3 2 ) )
(assert (<= (+ (* (ite (= cancion_3 1 ) 1 0 ) 10 ) (+ (* (ite (= cancion_2 1 ) 1 0 ) 5 ) (+ (* (ite (= cancion_1 1 ) 1 0 ) 10 ) (* (ite (= cancion_0 1 ) 1 0 ) 15 ) ) ) ) 20 ) )
(assert (<= (+ (* (ite (= cancion_3 2 ) 1 0 ) 10 ) (+ (* (ite (= cancion_2 2 ) 1 0 ) 5 ) (+ (* (ite (= cancion_1 2 ) 1 0 ) 10 ) (* (ite (= cancion_0 2 ) 1 0 ) 15 ) ) ) ) 15 ) )
(assert (<= 25 (+ (* (ite (= cancion_3 2 ) 1 0 ) 8 ) (+ (* (ite (= cancion_3 1 ) 1 0 ) 8 ) (+ (* (ite (= cancion_2 2 ) 1 0 ) 6 ) (+ (* (ite (= cancion_2 1 ) 1 0 ) 6 ) (+ (* (ite (= cancion_1 2 ) 1 0 ) 10 ) (+ (* (ite (= cancion_1 1 ) 1 0 ) 10 ) (+ (* (ite (= cancion_0 2 ) 1 0 ) 7 ) (* (ite (= cancion_0 1 ) 1 0 ) 7 ) ) ) ) ) ) ) ) ) )
(check-sat)
(get-value ( cancion_0 ) )
(get-value ( cancion_1 ) )
(get-value ( cancion_2 ) )
(get-value ( cancion_3 ) )
